proyfinal/src/viki/013/experimentInOfficeAgust.take6.output/0cfafd8e-5a33-47c0-9bf6-f721260d88be.als.dat
{'cnf.clauses': '118081',
 'cnf.totvars': '69608',
 'conflict literals': '39',
 'conflicts': '20',
 'decisions': '5089',
 'memused.mb': '16.72',
 'outcome': 'UNSAT',
 'propagations': '27996',
 'restarts': '1',
 'solver.msecs': 36,
 'task.msecs': 85}
