proyfinal/src/viki/013/experimentInOfficeAgust.take6.output/0cfafd8e-5a33-47c0-9bf6-f721260d88be.als.out
Reading from standard input... Use '--help' for help.
============================[ Problem Statistics ]=============================
|                                                                             |
|  Number of variables:         69608                                         |
|  Number of clauses:          118081                                         |
|  Parse time:                   0.03 s                                       |
|                                                                             |
============================[ Search Statistics ]==============================
| Conflicts |          ORIGINAL         |          LEARNT          | Progress |
|           |    Vars  Clauses Literals |    Limit  Clauses Lit/Cl |          |
===============================================================================
===============================================================================
restarts              : 1
conflicts             : 20             (553 /sec)
decisions             : 5089           (0.00 % random) (140794 /sec)
propagations          : 27996          (774547 /sec)
conflict literals     : 39             (0.00 % deleted)
Memory used           : 16.72 MB
CPU time              : 0.036145 s

UNSATISFIABLE
